Cu4
1.0
   3.6351088431226177    0.0000000000000000    0.0000000000000002
  -0.0000000000000002    3.6351088431226177    0.0000000000000002
   0.0000000000000000    0.0000000000000000    3.6351088431226177
Cu
4
direct
   0.0000000000000000    0.0000000000000000    0.0000000000000000 Cu
   0.0000000000000000    0.5000000000000000    0.5000000000000000 Cu
   0.5000000000000000    0.0000000000000000    0.5000000000000000 Cu
   0.5000000000000000    0.5000000000000000    0.0000000000000000 Cu
