generated by phonopy                    
   1.00000000000000     
    11.5175073493303941    0.0000000000000000    0.0000000000000000
     0.0000000000000000   11.5175073493303941    0.0000000000000000
     0.0000000000000000    0.0000000000000000   11.5175073493303941
   Li   Cl   O 
    80    27    27
Direct
  0.0000046452082856  0.1667486898716106  0.1666670953489771
  0.3334647198291165  0.1672037769924231  0.1666678011104352
  0.6665444246627885  0.1672037817342513  0.1666676939879395
  0.0000045733696084  0.5000035363479043  0.1666694827788504
  0.3326305520101727  0.5000054273668653  0.1666739217001805
  0.6673786378015336  0.5000050525110211  0.1666727469127167
  0.0000045874693555  0.8332614800977041  0.1666672262666040
  0.3334646164818835  0.8328048331887885  0.1666681314851814
  0.6665445745341998  0.8328052098190710  0.1666680708961010
  0.0000044753738209  0.1671551768330275  0.5002852101516666
  0.3337566191726680  0.1674552989048976  0.4995444688551700
  0.6662525814673970  0.1674553705063033  0.4995449268772347
  0.0000044954832106  0.5000046570472989  0.4936688789058863
  0.3359741172543096  0.5000047137362742  0.5145986221678385
  0.6640351256758379  0.5000048172461291  0.5145984796036842
  0.0000044885783907  0.8328537929299671  0.5002853463817800
  0.3337565609350932  0.8325538749298289  0.4995448582696582
  0.6662526252041800  0.8325538237186123  0.4995455459814124
  0.0000046052341105  0.1671530578773783  0.8330464246767946
  0.3337554122733764  0.1674512914003117  0.8337856757471656
  0.6662537357993443  0.1674509724393971  0.8337864949788525
  0.0000046360942605  0.5000044605405094  0.8396609434234605
  0.3359673117316291  0.5000048987328256  0.8187314067312457
  0.6640419714692811  0.5000041179416215  0.8187315204794459
  0.0000046531180331  0.8328562297171516  0.8330472809121332
  0.3337553994595837  0.8325580639947248  0.8337857122914301
  0.6662537983349850  0.8325582854170435  0.8337863800669467
  0.1667447207082660  0.0000046459516554  0.1666670669022352
  0.5000044666656649  0.0000045239369939  0.1666695010556651
  0.8332645707503730  0.0000046888776026  0.1666672238240494
  0.1672064486165254  0.3334647779643163  0.1666677803985763
  0.5000044307745952  0.3326303659545289  0.1666739768774050
  0.8328027020183839  0.3334647198265301  0.1666680544377712
  0.1672047351291965  0.6665444206502968  0.1666678393651111
  0.5000048410390505  0.6673789580989293  0.1666725695699611
  0.8328042079197147  0.6665444125557727  0.1666682293098916
  0.1671555753399474  0.0000045679487002  0.5002857448228397
  0.5000046977275261  0.0000045005550859  0.4936678158807197
  0.8328533692668998  0.0000045584741812  0.5002858143046183
  0.1674550996474338  0.3337565861578753  0.4995442879435004
  0.5000045891240390  0.3359741479553620  0.5145983970724615
  0.8325539574438423  0.3337565840566015  0.4995445411705219
  0.1674551102466850  0.6662525799383161  0.4995450125743233
  0.5000046296665701  0.6640352664798002  0.5145984969009660
  0.8325538736684024  0.6662526190340188  0.4995451586181048
  0.1671535255770280  0.0000047056419419  0.8330456321075417
  0.5000043987380494  0.0000045671585482  0.8396615289086000
  0.8328558829696888  0.0000046800023341  0.8330458679976118
  0.1674509269991518  0.3337554253433765  0.8337859700614345
  0.5000048296715320  0.3359672289582250  0.8187298453889937
  0.8325584646080060  0.3337553674009044  0.8337862194893759
  0.1674507304326482  0.6662537788993959  0.8337863070694524
  0.5000050849506792  0.6640416888480942  0.8187314253267459
  0.8325583914823795  0.6662537591898285  0.8337864109608333
  0.1668437864063463  0.1668436534170468  0.9999834167209158
  0.5000042785330550  0.1722470417569397  0.9994683775132600
  0.8331656629064454  0.1668436298929805  0.9999836180689385
  0.1722470616346925  0.5000045415080621  0.9994684707979360
  0.5000041888500206  0.5000039426640015  0.0024680620197088
  0.8277626025747367  0.5000046121726029  0.9994684689275957
  0.1668439877390782  0.8331658510620770  0.9999836084612923
  0.5000044934514847  0.8277624563004267  0.9994683796154931
  0.8331653200298277  0.8331657066615037  0.9999837606611806
  0.1668445969781160  0.1668442997826531  0.3333496697539076
  0.5000049293785480  0.1722498541776645  0.3338663781079561
  0.8331645093450533  0.1668443757873703  0.3333497626582371
  0.1722497079165208  0.5000045854075950  0.3338664073334385
  0.5000049664673938  0.5000049476290371  0.3308771863624926
  0.8277594921077451  0.5000046197344616  0.3338663530133061
  0.1668446100865211  0.8331646532021892  0.3333498058381537
  0.5000048246010564  0.8277588993629195  0.3338663266540038
  0.8331643470393644  0.8331647311619292  0.3333499523208729
  0.1682323692476331  0.1682328356965215  0.6666653293336111
  0.5000044686448106  0.1584225644970303  0.6666643888007187
  0.8317764316247747  0.1682328756949332  0.6666656072876549
  0.1584236828446848  0.5000041045663508  0.6666645433080376
  0.8415854740965472  0.5000042317565558  0.6666645729466865
  0.1682321306459116  0.8317762011820733  0.6666656550388481
  0.5000046242348191  0.8415860848559262  0.6666645945802117
  0.8317769853672843  0.8317763562893816  0.6666659128655539
  0.0000045799386612  0.0000046721528904  0.9995708332502176
  0.3330676290130938  0.0000045921008436  0.9994810365366931
  0.6669414887313323  0.0000045613535207  0.9994810624319399
  0.0000045833062501  0.3330676524923533  0.9994810679690787
  0.3323354700692533  0.3323354445932765  0.0016970851119851
  0.6676735499760653  0.3323355008150273  0.0016969706646037
  0.0000045753717117  0.6669414100261548  0.9994811128795718
  0.3323354980833955  0.6676736731987134  0.0016970508898098
  0.6676735948594157  0.6676736679748316  0.0016969065139563
  0.0000044441433573  0.0000046463914813  0.3337627421983669
  0.3330675058242036  0.0000045049871602  0.3338525897813724
  0.6669415590341998  0.0000045072905550  0.3338525612218959
  0.0000044654249294  0.3330676215585271  0.3338525543649240
  0.3323335137417516  0.3323333943648024  0.3316360442960971
  0.6676755981945277  0.3323332725231225  0.3316359790854193
  0.0000044695164902  0.6669415093133608  0.3338525594526445
  0.3323334158178213  0.6676757330937377  0.3316359662337760
  0.6676756858126183  0.6676757915595175  0.3316359560366493
  0.0000045435574876  0.0000045922889456  0.6666655600816469
  0.3333470313120372  0.0000045322056437  0.6666654283630606
  0.6666620842940816  0.0000045054784721  0.6666654361687065
  0.0000045314686759  0.3333471277907876  0.6666653784187133
  0.3317204722732185  0.3317206137067430  0.6666672295203142
  0.6682887098010113  0.3317205187215677  0.6666672998410021
  0.0000044949489961  0.6666619341576734  0.6666654299127330
  0.3317204425169251  0.6682885788344706  0.6666673382333954
  0.6682886463423472  0.6682886200451108  0.6666673557774914
  0.1662811133458746  0.1662812246821233  0.1666669920440214
  0.5000045449074904  0.1668525531993339  0.1666685753273569
  0.8337279961289710  0.1662812271808747  0.1666670136151609
  0.1668528187916394  0.5000045457843285  0.1666686156584163
  0.5000046113077872  0.5000046925913963  0.1666734505545548
  0.8331562853314693  0.5000045135133107  0.1666685600543971
  0.1662809790706206  0.8337280076733222  0.1666670627120297
  0.5000045959109087  0.8331565290835172  0.1666685175660021
  0.8337281089798338  0.8337279991831750  0.1666671473953940
  0.1667480234507934  0.1667480387497875  0.4999152840649472
  0.5000046107908815  0.1672508534431500  0.5006074384845434
  0.8332609854383932  0.1667480196452829  0.4999154402169594
  0.1672508692851267  0.5000045288128305  0.5006074887977050
  0.5000046362535002  0.5000047060649919  0.4912668910275926
  0.8327581477239576  0.5000045345185029  0.5006074997999477
  0.1667479677621841  0.8332610742921176  0.4999154818627574
  0.5000045484603532  0.8327582248570025  0.5006075204264846
  0.8332610404470699  0.8332611036541095  0.4999156156547144
  0.1667469353119131  0.1667469797600987  0.8334164725325195
  0.5000045689117059  0.1672471802826578  0.8327231529318055
  0.8332622051321650  0.1667469533499784  0.8334166389263373
  0.1672472312408786  0.5000045789971423  0.8327233632018576
  0.5000046626062087  0.5000043297926382  0.8420666739713880
  0.8327620163037892  0.5000045234932315  0.8327233750495040
  0.1667469127871897  0.8332622807705263  0.8334166581669749
  0.5000046024907405  0.8327619405109203  0.8327233369096447
  0.8332622887039918  0.8332622688708611  0.8334168568262683
 
  0.00000000E+00  0.00000000E+00  0.00000000E+00
  0.00000000E+00  0.00000000E+00  0.00000000E+00
  0.00000000E+00  0.00000000E+00  0.00000000E+00
  0.00000000E+00  0.00000000E+00  0.00000000E+00
  0.00000000E+00  0.00000000E+00  0.00000000E+00
  0.00000000E+00  0.00000000E+00  0.00000000E+00
  0.00000000E+00  0.00000000E+00  0.00000000E+00
  0.00000000E+00  0.00000000E+00  0.00000000E+00
  0.00000000E+00  0.00000000E+00  0.00000000E+00
  0.00000000E+00  0.00000000E+00  0.00000000E+00
  0.00000000E+00  0.00000000E+00  0.00000000E+00
  0.00000000E+00  0.00000000E+00  0.00000000E+00
  0.00000000E+00  0.00000000E+00  0.00000000E+00
  0.00000000E+00  0.00000000E+00  0.00000000E+00
  0.00000000E+00  0.00000000E+00  0.00000000E+00
  0.00000000E+00  0.00000000E+00  0.00000000E+00
  0.00000000E+00  0.00000000E+00  0.00000000E+00
  0.00000000E+00  0.00000000E+00  0.00000000E+00
  0.00000000E+00  0.00000000E+00  0.00000000E+00
  0.00000000E+00  0.00000000E+00  0.00000000E+00
  0.00000000E+00  0.00000000E+00  0.00000000E+00
  0.00000000E+00  0.00000000E+00  0.00000000E+00
  0.00000000E+00  0.00000000E+00  0.00000000E+00
  0.00000000E+00  0.00000000E+00  0.00000000E+00
  0.00000000E+00  0.00000000E+00  0.00000000E+00
  0.00000000E+00  0.00000000E+00  0.00000000E+00
  0.00000000E+00  0.00000000E+00  0.00000000E+00
  0.00000000E+00  0.00000000E+00  0.00000000E+00
  0.00000000E+00  0.00000000E+00  0.00000000E+00
  0.00000000E+00  0.00000000E+00  0.00000000E+00
  0.00000000E+00  0.00000000E+00  0.00000000E+00
  0.00000000E+00  0.00000000E+00  0.00000000E+00
  0.00000000E+00  0.00000000E+00  0.00000000E+00
  0.00000000E+00  0.00000000E+00  0.00000000E+00
  0.00000000E+00  0.00000000E+00  0.00000000E+00
  0.00000000E+00  0.00000000E+00  0.00000000E+00
  0.00000000E+00  0.00000000E+00  0.00000000E+00
  0.00000000E+00  0.00000000E+00  0.00000000E+00
  0.00000000E+00  0.00000000E+00  0.00000000E+00
  0.00000000E+00  0.00000000E+00  0.00000000E+00
  0.00000000E+00  0.00000000E+00  0.00000000E+00
  0.00000000E+00  0.00000000E+00  0.00000000E+00
  0.00000000E+00  0.00000000E+00  0.00000000E+00
  0.00000000E+00  0.00000000E+00  0.00000000E+00
  0.00000000E+00  0.00000000E+00  0.00000000E+00
  0.00000000E+00  0.00000000E+00  0.00000000E+00
  0.00000000E+00  0.00000000E+00  0.00000000E+00
  0.00000000E+00  0.00000000E+00  0.00000000E+00
  0.00000000E+00  0.00000000E+00  0.00000000E+00
  0.00000000E+00  0.00000000E+00  0.00000000E+00
  0.00000000E+00  0.00000000E+00  0.00000000E+00
  0.00000000E+00  0.00000000E+00  0.00000000E+00
  0.00000000E+00  0.00000000E+00  0.00000000E+00
  0.00000000E+00  0.00000000E+00  0.00000000E+00
  0.00000000E+00  0.00000000E+00  0.00000000E+00
  0.00000000E+00  0.00000000E+00  0.00000000E+00
  0.00000000E+00  0.00000000E+00  0.00000000E+00
  0.00000000E+00  0.00000000E+00  0.00000000E+00
  0.00000000E+00  0.00000000E+00  0.00000000E+00
  0.00000000E+00  0.00000000E+00  0.00000000E+00
  0.00000000E+00  0.00000000E+00  0.00000000E+00
  0.00000000E+00  0.00000000E+00  0.00000000E+00
  0.00000000E+00  0.00000000E+00  0.00000000E+00
  0.00000000E+00  0.00000000E+00  0.00000000E+00
  0.00000000E+00  0.00000000E+00  0.00000000E+00
  0.00000000E+00  0.00000000E+00  0.00000000E+00
  0.00000000E+00  0.00000000E+00  0.00000000E+00
  0.00000000E+00  0.00000000E+00  0.00000000E+00
  0.00000000E+00  0.00000000E+00  0.00000000E+00
  0.00000000E+00  0.00000000E+00  0.00000000E+00
  0.00000000E+00  0.00000000E+00  0.00000000E+00
  0.00000000E+00  0.00000000E+00  0.00000000E+00
  0.00000000E+00  0.00000000E+00  0.00000000E+00
  0.00000000E+00  0.00000000E+00  0.00000000E+00
  0.00000000E+00  0.00000000E+00  0.00000000E+00
  0.00000000E+00  0.00000000E+00  0.00000000E+00
  0.00000000E+00  0.00000000E+00  0.00000000E+00
  0.00000000E+00  0.00000000E+00  0.00000000E+00
  0.00000000E+00  0.00000000E+00  0.00000000E+00
  0.00000000E+00  0.00000000E+00  0.00000000E+00
  0.00000000E+00  0.00000000E+00  0.00000000E+00
  0.00000000E+00  0.00000000E+00  0.00000000E+00
  0.00000000E+00  0.00000000E+00  0.00000000E+00
  0.00000000E+00  0.00000000E+00  0.00000000E+00
  0.00000000E+00  0.00000000E+00  0.00000000E+00
  0.00000000E+00  0.00000000E+00  0.00000000E+00
  0.00000000E+00  0.00000000E+00  0.00000000E+00
  0.00000000E+00  0.00000000E+00  0.00000000E+00
  0.00000000E+00  0.00000000E+00  0.00000000E+00
  0.00000000E+00  0.00000000E+00  0.00000000E+00
  0.00000000E+00  0.00000000E+00  0.00000000E+00
  0.00000000E+00  0.00000000E+00  0.00000000E+00
  0.00000000E+00  0.00000000E+00  0.00000000E+00
  0.00000000E+00  0.00000000E+00  0.00000000E+00
  0.00000000E+00  0.00000000E+00  0.00000000E+00
  0.00000000E+00  0.00000000E+00  0.00000000E+00
  0.00000000E+00  0.00000000E+00  0.00000000E+00
  0.00000000E+00  0.00000000E+00  0.00000000E+00
  0.00000000E+00  0.00000000E+00  0.00000000E+00
  0.00000000E+00  0.00000000E+00  0.00000000E+00
  0.00000000E+00  0.00000000E+00  0.00000000E+00
  0.00000000E+00  0.00000000E+00  0.00000000E+00
  0.00000000E+00  0.00000000E+00  0.00000000E+00
  0.00000000E+00  0.00000000E+00  0.00000000E+00
  0.00000000E+00  0.00000000E+00  0.00000000E+00
  0.00000000E+00  0.00000000E+00  0.00000000E+00
  0.00000000E+00  0.00000000E+00  0.00000000E+00
  0.00000000E+00  0.00000000E+00  0.00000000E+00
  0.00000000E+00  0.00000000E+00  0.00000000E+00
  0.00000000E+00  0.00000000E+00  0.00000000E+00
  0.00000000E+00  0.00000000E+00  0.00000000E+00
  0.00000000E+00  0.00000000E+00  0.00000000E+00
  0.00000000E+00  0.00000000E+00  0.00000000E+00
  0.00000000E+00  0.00000000E+00  0.00000000E+00
  0.00000000E+00  0.00000000E+00  0.00000000E+00
  0.00000000E+00  0.00000000E+00  0.00000000E+00
  0.00000000E+00  0.00000000E+00  0.00000000E+00
  0.00000000E+00  0.00000000E+00  0.00000000E+00
  0.00000000E+00  0.00000000E+00  0.00000000E+00
  0.00000000E+00  0.00000000E+00  0.00000000E+00
  0.00000000E+00  0.00000000E+00  0.00000000E+00
  0.00000000E+00  0.00000000E+00  0.00000000E+00
  0.00000000E+00  0.00000000E+00  0.00000000E+00
  0.00000000E+00  0.00000000E+00  0.00000000E+00
  0.00000000E+00  0.00000000E+00  0.00000000E+00
  0.00000000E+00  0.00000000E+00  0.00000000E+00
  0.00000000E+00  0.00000000E+00  0.00000000E+00
  0.00000000E+00  0.00000000E+00  0.00000000E+00
  0.00000000E+00  0.00000000E+00  0.00000000E+00
  0.00000000E+00  0.00000000E+00  0.00000000E+00
  0.00000000E+00  0.00000000E+00  0.00000000E+00
  0.00000000E+00  0.00000000E+00  0.00000000E+00
  0.00000000E+00  0.00000000E+00  0.00000000E+00
  0.00000000E+00  0.00000000E+00  0.00000000E+00
