generated by phonopy
   1.0
     7.2702176862452355    0.0000000000000000    0.0000000000000004
    -0.0000000000000004    7.2702176862452355    0.0000000000000004
     0.0000000000000000    0.0000000000000000    7.2702176862452355
Cu Ag
  26    6
Direct
  0.0059375582718530  0.0059375582718530  0.0000000000000000
  0.0059375582718530  0.0059375582718530  0.5000000000000000
  0.0059375582718530  0.4940624417281470  0.0000000000000000
  0.0059375582718530  0.4940624417281470  0.5000000000000000
  0.4940624417281470  0.0059375582718530  0.0000000000000000
  0.4940624417281470  0.0059375582718530  0.5000000000000000
  0.4940624417281470  0.4940624417281470  0.0000000000000000
  0.4940624417281470  0.4940624417281470  0.5000000000000000
  0.0091883290366987  0.2500000000000000  0.2500000000000000
  0.0091883290366987  0.2500000000000000  0.7500000000000000
  0.0010150236827959  0.7500000000000000  0.2500000000000000
  0.0010150236827959  0.7500000000000000  0.7500000000000000
  0.4908116709633012  0.2500000000000000  0.2500000000000000
  0.4908116709633012  0.2500000000000000  0.7500000000000000
  0.4989849763172041  0.7500000000000000  0.2500000000000000
  0.4989849763172041  0.7500000000000000  0.7500000000000000
  0.2500000000000000  0.0091883290366987  0.2500000000000000
  0.2500000000000000  0.0091883290366987  0.7500000000000000
  0.2500000000000000  0.4908116709633012  0.2500000000000000
  0.2500000000000000  0.4908116709633012  0.7500000000000000
  0.7500000000000000  0.0010150236827959  0.2500000000000000
  0.7500000000000000  0.0010150236827959  0.7500000000000000
  0.7500000000000000  0.4989849763172041  0.2500000000000000
  0.7500000000000000  0.4989849763172041  0.7500000000000000
  0.2500000000000000  0.2500000000000000  0.0000000000000000
  0.2500000000000000  0.2500000000000000  0.5000000000000000
  0.2500000000000000  0.7500000000000000  0.0000000000000000
  0.2500000000000000  0.7500000000000000  0.5000000000000000
  0.7500000000000000  0.2500000000000000  0.0000000000000000
  0.7500000000000000  0.2500000000000000  0.5000000000000000
  0.7500000000000000  0.7500000000000000  0.0000000000000000
  0.7500000000000000  0.7500000000000000  0.5000000000000000
