generated by phonopy
   1.0
     6.8391139285905371  -11.8456928030705129   -0.0000000000000003
     6.8391139285905371   11.8456928030705164    0.0000000000000003
     0.0000000000000000   -0.0000000000000002   14.8862160523555609
Ag I
  35   36
Direct
  0.2225481050114003  0.1117625758480298  0.2529341112965567
  0.5543384020528564  0.1105023512644387  0.2520009699060712
  0.8894974835279493  0.1105022293685950  0.2520010989856556
  0.2238544349521591  0.4452604000342810  0.2591166755783489
  0.5547393849924140  0.4452603722272563  0.2591166715189410
  0.8894980180440997  0.4456622363494596  0.2520010107980089
  0.2225482392806489  0.7774522840770761  0.2529342654511184
  0.5547389885222324  0.7761447897250451  0.2591165229390900
  0.8882373966184062  0.7774520440294578  0.2529340987544525
  0.2231260738122092  0.1129186192151081  0.7493605472457062
  0.5545683698464782  0.1106172926321367  0.7507124818442128
  0.8893824527080888  0.1106174259036771  0.7507125219088532
  0.2314052890676552  0.4490357221058876  0.7476308935390598
  0.5509640335022301  0.4490358759589974  0.7476307890791797
  0.8893828036682219  0.4454319014131627  0.7507126109411036
  0.2231260186019969  0.7768740361566935  0.7493603394420384
  0.5509641129501365  0.7685945517383180  0.7476308703883650
  0.8870815642259815  0.7768740612644879  0.7493603790127858
  0.1121412641501019  0.2236475533478716  0.0018065906635588
  0.4448396036423404  0.2236476578636451  0.0018064857343238
  0.7777777368813977  0.2222223045577163  0.0018642498260315
  0.1121414574228102  0.5551607659985383  0.0018065192659008
  0.4444442796219437  0.5555555904441947  0.0013992652175506
  0.7763523175603233  0.5551604978298623  0.0018064834150585
  0.1111109706181267  0.8888890343363798  0.0015332894082646
  0.4448392871740546  0.8878585763558674  0.0018064665816506
  0.7763523680018982  0.8878586351020921  0.0018064994934444
  0.1146064639519738  0.2308152365016544  0.4980767892384636
  0.4495416088299030  0.2308149834398599  0.4980768755148434
  0.7777775707609103  0.2222222823989729  0.4998575569295414
  0.1146064345733250  0.5504581212838761  0.4980767727406730
  0.7691852046089740  0.5504586099321619  0.4980768191710909
  0.1111112645634735  0.8888891647971787  0.5007343276691977
  0.4495418660822340  0.8853934254519571  0.4980767626215890
  0.7691846646571768  0.8853933194800303  0.4980767996621076
  0.2227192301856242  0.1121054330258510  0.4405505234609925
  0.5541105178528196  0.1103886238703467  0.4398835201130445
  0.8896111787288661  0.1103886521777252  0.4398836224273686
  0.2376023756245802  0.4521346028034421  0.4434114813150359
  0.5478656801130738  0.4521344609624923  0.4434114824041812
  0.8896112835987382  0.4458893895347145  0.4398835331397512
  0.2227192751472764  0.7772807323213407  0.4405506505799794
  0.5478653426475447  0.7623974879560169  0.4434113905237602
  0.8878948682302935  0.7772809774210045  0.4405505401777423
  0.2223354336382767  0.1113376150790496  0.9381913324347130
  0.5551458346734247  0.1109062440775727  0.9391439452382562
  0.8890936737667372  0.1109062591130678  0.9391439651716798
  0.2228211017853005  0.4447439371629882  0.9362637428497013
  0.5552559517415292  0.4447440187485359  0.9362636896083281
  0.8890937773362860  0.4448542647339586  0.9391440304522677
  0.2223353076255286  0.7776647361212374  0.9381911875294978
  0.5552559407671644  0.7771787339873454  0.9362637361105052
  0.8886624308834669  0.7776646135226548  0.9381912286131029
  0.1122253200741976  0.2241413439355132  0.1895568046191575
  0.4452494856402186  0.2241413467863084  0.1895567223558971
  0.7777780280487151  0.2222224558417330  0.1898614625078923
  0.1122257317627169  0.5547507922891270  0.1895567670688384
  0.4444442692024105  0.5555551065024470  0.1880798055346423
  0.7758585082549494  0.5547505974188852  0.1895567488842889
  0.1111111262473859  0.8888888520161117  0.1895629261830891
  0.4452495733752281  0.8877745424893367  0.1895567216510516
  0.7758582695445455  0.8877744337694407  0.1895567694624347
  0.1112069259516897  0.2235009389121310  0.6878672588180704
  0.4456274789830560  0.2235009833227697  0.6878673095902929
  0.7777778715161184  0.2222223656824278  0.6886896274306958
  0.1112071597289785  0.5543725407489584  0.6878672755044863
  0.4444444101419894  0.5555554361569880  0.6746444176745608
  0.7764989777327599  0.5543725782583083  0.6878673042380559
  0.1111112267337239  0.8888889657671682  0.6894046692161935
  0.4456275236668362  0.8887928771170237  0.6878672496382461
  0.7764989301174136  0.8887929763764132  0.6878672655472101
