Li3 Cl1 O1                              
   1.00000000000000     
     3.8391691164434647    0.0000000000000000    0.0000000000000000
    -0.0000000000000000    3.8391691164434647   -0.0000000000000000
     0.0000000000000000   -0.0000000000000000    3.8391691164434647
   Li   Cl   O 
     3     1     1
Direct
 -0.0000000000000000  0.5000000000000000  0.5000000000000000
  0.5000000000000000  0.0000000000000000  0.5000000000000000
  0.5000000000000000  0.5000000000000000 -0.0000000000000000
  0.0000000000000000 -0.0000000000000000 -0.0000000000000000
  0.5000000000000000  0.5000000000000000  0.5000000000000000
 
  0.00000000E+00  0.00000000E+00  0.00000000E+00
  0.00000000E+00  0.00000000E+00  0.00000000E+00
  0.00000000E+00  0.00000000E+00  0.00000000E+00
  0.00000000E+00  0.00000000E+00  0.00000000E+00
  0.00000000E+00  0.00000000E+00  0.00000000E+00
