generated by phonopy
   1.0
    11.5175073493303941    0.0000000000000000    0.0000000000000000
     0.0000000000000000   11.5175073493303941    0.0000000000000000
     0.0000000000000000    0.0000000000000000   11.5175073493303941
Li Cl O
  81   27   27
Direct
  0.0000000000000000  0.1666666666666667  0.1666666666666667
  0.3333333333333333  0.1666666666666667  0.1666666666666667
  0.6666666666666666  0.1666666666666667  0.1666666666666667
  0.0000000000000000  0.5000000000000000  0.1666666666666667
  0.3333333333333333  0.5000000000000000  0.1666666666666667
  0.6666666666666666  0.5000000000000000  0.1666666666666667
  0.0000000000000000  0.8333333333333333  0.1666666666666667
  0.3333333333333333  0.8333333333333333  0.1666666666666667
  0.6666666666666666  0.8333333333333333  0.1666666666666667
  0.0000000000000000  0.1666666666666667  0.5000000000000000
  0.3333333333333333  0.1666666666666667  0.5000000000000000
  0.6666666666666666  0.1666666666666667  0.5000000000000000
  0.0000000000000000  0.5000000000000000  0.5000000000000000
  0.3333333333333333  0.5000000000000000  0.5000000000000000
  0.6666666666666666  0.5000000000000000  0.5000000000000000
  0.0000000000000000  0.8333333333333333  0.5000000000000000
  0.3333333333333333  0.8333333333333333  0.5000000000000000
  0.6666666666666666  0.8333333333333333  0.5000000000000000
  0.0000000000000000  0.1666666666666667  0.8333333333333333
  0.3333333333333333  0.1666666666666667  0.8333333333333333
  0.6666666666666666  0.1666666666666667  0.8333333333333333
  0.0000000000000000  0.5000000000000000  0.8333333333333333
  0.3333333333333333  0.5000000000000000  0.8333333333333333
  0.6666666666666666  0.5000000000000000  0.8333333333333333
  0.0000000000000000  0.8333333333333333  0.8333333333333333
  0.3333333333333333  0.8333333333333333  0.8333333333333333
  0.6666666666666666  0.8333333333333333  0.8333333333333333
  0.1666666666666667  0.0000000000000000  0.1666666666666667
  0.5000000000000000  0.0000000000000000  0.1666666666666667
  0.8333333333333333  0.0000000000000000  0.1666666666666667
  0.1666666666666667  0.3333333333333333  0.1666666666666667
  0.5000000000000000  0.3333333333333333  0.1666666666666667
  0.8333333333333333  0.3333333333333333  0.1666666666666667
  0.1666666666666667  0.6666666666666666  0.1666666666666667
  0.5000000000000000  0.6666666666666666  0.1666666666666667
  0.8333333333333333  0.6666666666666666  0.1666666666666667
  0.1666666666666667  0.0000000000000000  0.5000000000000000
  0.5000000000000000  0.0000000000000000  0.5000000000000000
  0.8333333333333333  0.0000000000000000  0.5000000000000000
  0.1666666666666667  0.3333333333333333  0.5000000000000000
  0.5000000000000000  0.3333333333333333  0.5000000000000000
  0.8333333333333333  0.3333333333333333  0.5000000000000000
  0.1666666666666667  0.6666666666666666  0.5000000000000000
  0.5000000000000000  0.6666666666666666  0.5000000000000000
  0.8333333333333333  0.6666666666666666  0.5000000000000000
  0.1666666666666667  0.0000000000000000  0.8333333333333333
  0.5000000000000000  0.0000000000000000  0.8333333333333333
  0.8333333333333333  0.0000000000000000  0.8333333333333333
  0.1666666666666667  0.3333333333333333  0.8333333333333333
  0.5000000000000000  0.3333333333333333  0.8333333333333333
  0.8333333333333333  0.3333333333333333  0.8333333333333333
  0.1666666666666667  0.6666666666666666  0.8333333333333333
  0.5000000000000000  0.6666666666666666  0.8333333333333333
  0.8333333333333333  0.6666666666666666  0.8333333333333333
  0.1666666666666667  0.1666666666666667  0.0000000000000000
  0.5000000000000000  0.1666666666666667  0.0000000000000000
  0.8333333333333333  0.1666666666666667  0.0000000000000000
  0.1666666666666667  0.5000000000000000  0.0000000000000000
  0.5000000000000000  0.5000000000000000  0.0000000000000000
  0.8333333333333333  0.5000000000000000  0.0000000000000000
  0.1666666666666667  0.8333333333333333  0.0000000000000000
  0.5000000000000000  0.8333333333333333  0.0000000000000000
  0.8333333333333333  0.8333333333333333  0.0000000000000000
  0.1666666666666667  0.1666666666666667  0.3333333333333333
  0.5000000000000000  0.1666666666666667  0.3333333333333333
  0.8333333333333333  0.1666666666666667  0.3333333333333333
  0.1666666666666667  0.5000000000000000  0.3333333333333333
  0.5000000000000000  0.5000000000000000  0.3333333333333333
  0.8333333333333333  0.5000000000000000  0.3333333333333333
  0.1666666666666667  0.8333333333333333  0.3333333333333333
  0.5000000000000000  0.8333333333333333  0.3333333333333333
  0.8333333333333333  0.8333333333333333  0.3333333333333333
  0.1666666666666667  0.1666666666666667  0.6666666666666666
  0.5000000000000000  0.1666666666666667  0.6666666666666666
  0.8333333333333333  0.1666666666666667  0.6666666666666666
  0.1666666666666667  0.5000000000000000  0.6666666666666666
  0.5000000000000000  0.5000000000000000  0.6666666666666666
  0.8333333333333333  0.5000000000000000  0.6666666666666666
  0.1666666666666667  0.8333333333333333  0.6666666666666666
  0.5000000000000000  0.8333333333333333  0.6666666666666666
  0.8333333333333333  0.8333333333333333  0.6666666666666666
  0.0000000000000000  0.0000000000000000  0.0000000000000000
  0.3333333333333333  0.0000000000000000  0.0000000000000000
  0.6666666666666666  0.0000000000000000  0.0000000000000000
  0.0000000000000000  0.3333333333333333  0.0000000000000000
  0.3333333333333333  0.3333333333333333  0.0000000000000000
  0.6666666666666666  0.3333333333333333  0.0000000000000000
  0.0000000000000000  0.6666666666666666  0.0000000000000000
  0.3333333333333333  0.6666666666666666  0.0000000000000000
  0.6666666666666666  0.6666666666666666  0.0000000000000000
  0.0000000000000000  0.0000000000000000  0.3333333333333333
  0.3333333333333333  0.0000000000000000  0.3333333333333333
  0.6666666666666666  0.0000000000000000  0.3333333333333333
  0.0000000000000000  0.3333333333333333  0.3333333333333333
  0.3333333333333333  0.3333333333333333  0.3333333333333333
  0.6666666666666666  0.3333333333333333  0.3333333333333333
  0.0000000000000000  0.6666666666666666  0.3333333333333333
  0.3333333333333333  0.6666666666666666  0.3333333333333333
  0.6666666666666666  0.6666666666666666  0.3333333333333333
  0.0000000000000000  0.0000000000000000  0.6666666666666666
  0.3333333333333333  0.0000000000000000  0.6666666666666666
  0.6666666666666666  0.0000000000000000  0.6666666666666666
  0.0000000000000000  0.3333333333333333  0.6666666666666666
  0.3333333333333333  0.3333333333333333  0.6666666666666666
  0.6666666666666666  0.3333333333333333  0.6666666666666666
  0.0000000000000000  0.6666666666666666  0.6666666666666666
  0.3333333333333333  0.6666666666666666  0.6666666666666666
  0.6666666666666666  0.6666666666666666  0.6666666666666666
  0.1666666666666667  0.1666666666666667  0.1666666666666667
  0.5000000000000000  0.1666666666666667  0.1666666666666667
  0.8333333333333333  0.1666666666666667  0.1666666666666667
  0.1666666666666667  0.5000000000000000  0.1666666666666667
  0.5000000000000000  0.5000000000000000  0.1666666666666667
  0.8333333333333333  0.5000000000000000  0.1666666666666667
  0.1666666666666667  0.8333333333333333  0.1666666666666667
  0.5000000000000000  0.8333333333333333  0.1666666666666667
  0.8333333333333333  0.8333333333333333  0.1666666666666667
  0.1666666666666667  0.1666666666666667  0.5000000000000000
  0.5000000000000000  0.1666666666666667  0.5000000000000000
  0.8333333333333333  0.1666666666666667  0.5000000000000000
  0.1666666666666667  0.5000000000000000  0.5000000000000000
  0.5000000000000000  0.5000000000000000  0.5000000000000000
  0.8333333333333333  0.5000000000000000  0.5000000000000000
  0.1666666666666667  0.8333333333333333  0.5000000000000000
  0.5000000000000000  0.8333333333333333  0.5000000000000000
  0.8333333333333333  0.8333333333333333  0.5000000000000000
  0.1666666666666667  0.1666666666666667  0.8333333333333333
  0.5000000000000000  0.1666666666666667  0.8333333333333333
  0.8333333333333333  0.1666666666666667  0.8333333333333333
  0.1666666666666667  0.5000000000000000  0.8333333333333333
  0.5000000000000000  0.5000000000000000  0.8333333333333333
  0.8333333333333333  0.5000000000000000  0.8333333333333333
  0.1666666666666667  0.8333333333333333  0.8333333333333333
  0.5000000000000000  0.8333333333333333  0.8333333333333333
  0.8333333333333333  0.8333333333333333  0.8333333333333333
